\* Pricing_problem *\
Minimize
OBJ: - 0.1 M_0,0 - 0.0666666666667 M_0,2 + 0.0666666666667 M_0,4 - 0.1 M_1,1
 - 0.0666666666667 M_1,2 - 0.0333333333333 M_1,4 - 0.0666666666667 M_10,0
 - 0.0333333333333 M_10,1 - 0.1 M_10,3 - 0.0666666666667 M_11,3
 - 0.0333333333333 M_11,4 - 0.0333333333333 M_12,0 - 0.133333333333 M_12,2
 - 0.0666666666667 M_12,3 - 0.1 M_12,4 - 0.0666666666667 M_13,0
 - 0.133333333333 M_13,2 - 0.0333333333333 M_13,3 - 0.1 M_13,4
 + 0.0666666666667 M_14,4 - 0.0333333333333 M_15,4 + 0.0333333333333 M_16,0
 - 0.0333333333333 M_16,3 - 0.0666666666667 M_17,0 - 0.0333333333333 M_17,3
 + 0.133333333333 M_18,0 - 0.1 M_18,3 - 0.0333333333333 M_18,4
 - 0.0333333333333 M_19,0 - 0.0666666666667 M_19,2 - 0.0333333333333 M_19,3
 - 0.0666666666667 M_2,0 - 0.0333333333333 M_2,3 - 0.0666666666667 M_20,0
 - 0.133333333333 M_20,1 - 0.1 M_20,2 - 0.0333333333333 M_20,3
 - 0.166666666667 M_20,4 + 1.04083408559e-16 M_21,2 - 0.0333333333333 M_22,0
 - 0.0666666666667 M_22,3 - 0.133333333333 M_23,0 - 0.166666666667 M_23,1
 - 0.0333333333333 M_23,2 - 0.0666666666667 M_23,3 - 0.1 M_23,4 - 0.1 M_24,0
 - 0.0333333333333 M_24,3 - 0.0666666666667 M_24,4 - 0.0666666666667 M_25,0
 - 0.0333333333333 M_25,2 - 0.1 M_25,4 - 0.0333333333333 M_26,1
 - 0.0666666666667 M_26,2 + 0.0333333333333 M_27,0 - 0.0333333333333 M_28,1
 - 0.0666666666667 M_28,3 - 0.1 M_28,4 - 0.0333333333333 M_29,0
 - 0.0666666666667 M_29,2 - 0.1 M_29,3 - 0.0666666666667 M_3,2
 - 0.0333333333333 M_3,4 + 0.0333333333333 M_4,0 - 0.0333333333333 M_4,3
 - 0.0666666666667 M_5,0 - 0.1 M_5,1 - 0.0333333333333 M_5,4 - 0.1 M_6,2
 - 0.0666666666667 M_6,3 - 0.0333333333333 M_6,4 - 0.0666666666667 M_7,0
 - 0.0333333333333 M_7,2 - 0.0333333333333 M_8,0 + 0.1 M_8,3
 - 0.0333333333333 M_9,3 - 0.0666666666667 M_9,4
Subject To
LESS_CAP_0: M_0,0 + M_10,0 + M_12,0 + M_13,0 + M_16,0 + M_17,0 + M_18,0
 + M_19,0 + M_2,0 + M_20,0 + M_22,0 + M_23,0 + M_24,0 + M_25,0 + M_27,0
 + M_29,0 + M_4,0 + M_5,0 + M_7,0 + M_8,0 <= 7
LESS_CAP_1: M_1,1 + M_10,1 + M_20,1 + M_23,1 + M_26,1 + M_28,1 + M_5,1 <= 8
LESS_CAP_2: M_0,2 + M_1,2 + M_12,2 + M_13,2 + M_19,2 + M_20,2 + M_21,2
 + M_23,2 + M_25,2 + M_26,2 + M_29,2 + M_3,2 + M_6,2 + M_7,2 <= 7
LESS_CAP_3: M_10,3 + M_11,3 + M_12,3 + M_13,3 + M_16,3 + M_17,3 + M_18,3
 + M_19,3 + M_2,3 + M_20,3 + M_22,3 + M_23,3 + M_24,3 + M_28,3 + M_29,3
 + M_4,3 + M_6,3 + M_8,3 + M_9,3 <= 1
LESS_CAP_4: M_0,4 + M_1,4 + M_11,4 + M_12,4 + M_13,4 + M_14,4 + M_15,4
 + M_18,4 + M_20,4 + M_23,4 + M_24,4 + M_25,4 + M_28,4 + M_3,4 + M_5,4 + M_6,4
 + M_9,4 <= 8
LESS_ONE_0: M_0,0 + M_0,2 + M_0,4 <= 1
LESS_ONE_1: M_1,1 + M_1,2 + M_1,4 <= 1
LESS_ONE_10: M_10,0 + M_10,1 + M_10,3 <= 1
LESS_ONE_11: M_11,3 + M_11,4 <= 1
LESS_ONE_12: M_12,0 + M_12,2 + M_12,3 + M_12,4 <= 1
LESS_ONE_13: M_13,0 + M_13,2 + M_13,3 + M_13,4 <= 1
LESS_ONE_14: M_14,4 <= 1
LESS_ONE_15: M_15,4 <= 1
LESS_ONE_16: M_16,0 + M_16,3 <= 1
LESS_ONE_17: M_17,0 + M_17,3 <= 1
LESS_ONE_18: M_18,0 + M_18,3 + M_18,4 <= 1
LESS_ONE_19: M_19,0 + M_19,2 + M_19,3 <= 1
LESS_ONE_2: M_2,0 + M_2,3 <= 1
LESS_ONE_20: M_20,0 + M_20,1 + M_20,2 + M_20,3 + M_20,4 <= 1
LESS_ONE_21: M_21,2 <= 1
LESS_ONE_22: M_22,0 + M_22,3 <= 1
LESS_ONE_23: M_23,0 + M_23,1 + M_23,2 + M_23,3 + M_23,4 <= 1
LESS_ONE_24: M_24,0 + M_24,3 + M_24,4 <= 1
LESS_ONE_25: M_25,0 + M_25,2 + M_25,4 <= 1
LESS_ONE_26: M_26,1 + M_26,2 <= 1
LESS_ONE_27: M_27,0 <= 1
LESS_ONE_28: M_28,1 + M_28,3 + M_28,4 <= 1
LESS_ONE_29: M_29,0 + M_29,2 + M_29,3 <= 1
LESS_ONE_3: M_3,2 + M_3,4 <= 1
LESS_ONE_4: M_4,0 + M_4,3 <= 1
LESS_ONE_5: M_5,0 + M_5,1 + M_5,4 <= 1
LESS_ONE_6: M_6,2 + M_6,3 + M_6,4 <= 1
LESS_ONE_7: M_7,0 + M_7,2 <= 1
LESS_ONE_8: M_8,0 + M_8,3 <= 1
LESS_ONE_9: M_9,3 + M_9,4 <= 1
STAB_0_0: 7 M_0,0 + 7 M_0,2 + 7 M_0,4 + M_12,0 + M_2,0 + M_23,0 + M_5,0
 + M_7,0 >= 7
STAB_0_2: 7 M_0,2 + 7 M_0,4 + M_12,2 + M_20,2 + M_25,2 + M_7,2 >= 7
STAB_0_4: 8 M_0,4 + M_1,4 + M_11,4 + M_12,4 + M_13,4 + M_14,4 + M_15,4
 + M_18,4 + M_20,4 + M_23,4 + M_24,4 + M_25,4 + M_28,4 + M_3,4 + M_5,4 + M_6,4
 + M_9,4 >= 8
STAB_10_0: M_0,0 + 7 M_10,0 + 7 M_10,1 + M_12,0 + M_13,0 + M_16,0 + M_17,0
 + M_18,0 + M_19,0 + M_2,0 + M_20,0 + M_22,0 + M_23,0 + M_24,0 + M_25,0
 + M_27,0 + M_29,0 + M_4,0 + M_5,0 + M_7,0 + M_8,0 >= 7
STAB_10_1: M_1,1 + 8 M_10,1 + M_20,1 + M_23,1 + M_26,1 + M_28,1 + M_5,1 >= 8
STAB_10_3: M_10,0 + M_10,1 + M_10,3 + M_19,3 + M_23,3 + M_28,3 + M_8,3 + M_9,3
 >= 1
STAB_11_3: M_10,3 + M_11,3 + M_11,4 + M_12,3 + M_13,3 + M_16,3 + M_17,3
 + M_18,3 + M_19,3 + M_2,3 + M_20,3 + M_22,3 + M_23,3 + M_24,3 + M_28,3
 + M_29,3 + M_4,3 + M_6,3 + M_8,3 + M_9,3 >= 1
STAB_11_4: 8 M_11,4 + M_12,4 + M_15,4 + M_6,4 >= 8
STAB_12_0: M_0,0 + 7 M_12,0 + M_2,0 + M_23,0 + M_5,0 + M_7,0 >= 7
STAB_12_2: M_0,2 + 7 M_12,0 + 7 M_12,2 + 7 M_12,3 + 7 M_12,4 + M_20,2 + M_25,2
 + M_7,2 >= 7
STAB_12_3: M_10,3 + M_12,0 + M_12,3 + M_17,3 + M_19,3 + M_2,3 + M_20,3
 + M_22,3 + M_23,3 + M_24,3 + M_28,3 + M_29,3 + M_4,3 + M_6,3 + M_8,3 + M_9,3
 >= 1
STAB_12_4: M_11,4 + 8 M_12,0 + 8 M_12,3 + 8 M_12,4 + M_15,4 + M_6,4 >= 8
STAB_13_0: M_0,0 + M_10,0 + M_12,0 + 7 M_13,0 + 7 M_13,3 + M_16,0 + M_17,0
 + M_18,0 + M_19,0 + M_2,0 + M_20,0 + M_22,0 + M_23,0 + M_24,0 + M_25,0
 + M_27,0 + M_29,0 + M_4,0 + M_5,0 + M_7,0 + M_8,0 >= 7
STAB_13_2: M_0,2 + M_1,2 + M_12,2 + 7 M_13,0 + 7 M_13,2 + 7 M_13,3 + 7 M_13,4
 + M_19,2 + M_20,2 + M_21,2 + M_23,2 + M_25,2 + M_26,2 + M_29,2 + M_3,2
 + M_6,2 + M_7,2 >= 7
STAB_13_3: M_10,3 + M_11,3 + M_12,3 + M_13,3 + M_16,3 + M_17,3 + M_18,3
 + M_19,3 + M_2,3 + M_20,3 + M_22,3 + M_23,3 + M_24,3 + M_28,3 + M_29,3
 + M_4,3 + M_6,3 + M_8,3 + M_9,3 >= 1
STAB_13_4: M_1,4 + M_11,4 + M_12,4 + 8 M_13,0 + 8 M_13,3 + 8 M_13,4 + M_15,4
 + M_24,4 + M_25,4 + M_3,4 + M_6,4 + M_9,4 >= 8
STAB_14_4: M_0,4 + M_1,4 + M_11,4 + M_12,4 + M_13,4 + 8 M_14,4 + M_15,4
 + M_18,4 + M_20,4 + M_23,4 + M_24,4 + M_25,4 + M_28,4 + M_3,4 + M_5,4 + M_6,4
 + M_9,4 >= 8
STAB_15_4: M_11,4 + M_12,4 + 8 M_15,4 + M_6,4 >= 8
STAB_16_0: M_0,0 + M_12,0 + 7 M_16,0 + 7 M_16,3 + M_18,0 + M_19,0 + M_2,0
 + M_20,0 + M_23,0 + M_24,0 + M_27,0 + M_4,0 + M_5,0 + M_7,0 >= 7
STAB_16_3: M_10,3 + M_11,3 + M_12,3 + M_13,3 + M_16,3 + M_17,3 + M_18,3
 + M_19,3 + M_2,3 + M_20,3 + M_22,3 + M_23,3 + M_24,3 + M_28,3 + M_29,3
 + M_4,3 + M_6,3 + M_8,3 + M_9,3 >= 1
STAB_17_0: M_0,0 + M_10,0 + M_12,0 + M_13,0 + M_16,0 + 7 M_17,0 + 7 M_17,3
 + M_18,0 + M_19,0 + M_2,0 + M_20,0 + M_22,0 + M_23,0 + M_24,0 + M_25,0
 + M_27,0 + M_29,0 + M_4,0 + M_5,0 + M_7,0 + M_8,0 >= 7
STAB_17_3: M_10,3 + M_12,3 + M_17,3 + M_19,3 + M_2,3 + M_20,3 + M_22,3
 + M_23,3 + M_24,3 + M_28,3 + M_29,3 + M_4,3 + M_6,3 + M_8,3 + M_9,3 >= 1
STAB_18_0: M_0,0 + M_12,0 + M_16,0 + 7 M_18,0 + 7 M_18,4 + M_19,0 + M_2,0
 + M_20,0 + M_23,0 + M_24,0 + M_27,0 + M_4,0 + M_5,0 + M_7,0 >= 7
STAB_18_3: M_10,3 + M_11,3 + M_12,3 + M_13,3 + M_16,3 + M_17,3 + M_18,0
 + M_18,3 + M_18,4 + M_19,3 + M_2,3 + M_20,3 + M_22,3 + M_23,3 + M_24,3
 + M_28,3 + M_29,3 + M_4,3 + M_6,3 + M_8,3 + M_9,3 >= 1
STAB_18_4: M_0,4 + M_1,4 + M_11,4 + M_12,4 + M_13,4 + M_14,4 + M_15,4
 + 8 M_18,4 + M_20,4 + M_23,4 + M_24,4 + M_25,4 + M_28,4 + M_3,4 + M_5,4
 + M_6,4 + M_9,4 >= 8
STAB_19_0: M_0,0 + M_12,0 + M_16,0 + M_18,0 + 7 M_19,0 + M_2,0 + M_20,0
 + M_23,0 + M_24,0 + M_27,0 + M_4,0 + M_5,0 + M_7,0 >= 7
STAB_19_2: M_0,2 + M_1,2 + M_12,2 + M_13,2 + 7 M_19,0 + 7 M_19,2 + M_20,2
 + M_21,2 + M_23,2 + M_25,2 + M_26,2 + M_29,2 + M_3,2 + M_6,2 + M_7,2 >= 7
STAB_19_3: M_10,3 + M_19,0 + M_19,2 + M_19,3 + M_23,3 + M_28,3 + M_8,3 + M_9,3
 >= 1
STAB_1_1: 8 M_1,1 + 8 M_1,2 + 8 M_1,4 >= 8
STAB_1_2: M_0,2 + 7 M_1,2 + 7 M_1,4 + M_12,2 + M_13,2 + M_19,2 + M_20,2
 + M_21,2 + M_23,2 + M_25,2 + M_26,2 + M_29,2 + M_3,2 + M_6,2 + M_7,2 >= 7
STAB_1_4: 8 M_1,4 + M_11,4 + M_12,4 + M_13,4 + M_15,4 + M_24,4 + M_25,4
 + M_3,4 + M_6,4 + M_9,4 >= 8
STAB_20_0: M_0,0 + M_12,0 + M_16,0 + M_18,0 + M_19,0 + M_2,0 + 7 M_20,0
 + 7 M_20,3 + M_23,0 + M_24,0 + M_27,0 + M_4,0 + M_5,0 + M_7,0 >= 7
STAB_20_1: M_1,1 + M_10,1 + 8 M_20,0 + 8 M_20,1 + 8 M_20,2 + 8 M_20,3 + M_23,1
 + M_26,1 + M_28,1 + M_5,1 >= 8
STAB_20_2: M_0,2 + M_12,2 + 7 M_20,0 + 7 M_20,2 + 7 M_20,3 + M_25,2 + M_7,2
 >= 7
STAB_20_3: M_10,3 + M_12,3 + M_17,3 + M_19,3 + M_2,3 + M_20,3 + M_22,3
 + M_23,3 + M_24,3 + M_28,3 + M_29,3 + M_4,3 + M_6,3 + M_8,3 + M_9,3 >= 1
STAB_20_4: M_0,4 + M_1,4 + M_11,4 + M_12,4 + M_13,4 + M_14,4 + M_15,4 + M_18,4
 + 8 M_20,0 + 8 M_20,1 + 8 M_20,2 + 8 M_20,3 + 8 M_20,4 + M_23,4 + M_24,4
 + M_25,4 + M_28,4 + M_3,4 + M_5,4 + M_6,4 + M_9,4 >= 8
STAB_21_2: M_0,2 + M_1,2 + M_12,2 + M_13,2 + M_19,2 + M_20,2 + 7 M_21,2
 + M_23,2 + M_25,2 + M_26,2 + M_29,2 + M_3,2 + M_6,2 + M_7,2 >= 7
STAB_22_0: M_0,0 + M_10,0 + M_12,0 + M_13,0 + M_16,0 + M_17,0 + M_18,0
 + M_19,0 + M_2,0 + M_20,0 + 7 M_22,0 + M_23,0 + M_24,0 + M_25,0 + M_27,0
 + M_29,0 + M_4,0 + M_5,0 + M_7,0 + M_8,0 >= 7
STAB_22_3: M_10,3 + M_12,3 + M_17,3 + M_19,3 + M_2,3 + M_20,3 + M_22,0
 + M_22,3 + M_23,3 + M_24,3 + M_28,3 + M_29,3 + M_4,3 + M_6,3 + M_8,3 + M_9,3
 >= 1
STAB_23_0: M_0,0 + M_12,0 + M_2,0 + 7 M_23,0 + 7 M_23,2 + 7 M_23,3 + 7 M_23,4
 + M_5,0 + M_7,0 >= 7
STAB_23_1: M_1,1 + 8 M_23,0 + 8 M_23,1 + 8 M_23,2 + 8 M_23,3 + 8 M_23,4
 + M_26,1 >= 8
STAB_23_2: M_0,2 + M_12,2 + M_20,2 + 7 M_23,2 + M_25,2 + M_26,2 + M_29,2
 + M_7,2 >= 7
STAB_23_3: M_10,3 + M_19,3 + M_23,2 + M_23,3 + M_28,3 + M_8,3 + M_9,3 >= 1
STAB_23_4: M_0,4 + M_1,4 + M_11,4 + M_12,4 + M_13,4 + M_14,4 + M_15,4 + M_18,4
 + M_20,4 + 8 M_23,2 + 8 M_23,3 + 8 M_23,4 + M_24,4 + M_25,4 + M_28,4 + M_3,4
 + M_5,4 + M_6,4 + M_9,4 >= 8
STAB_24_0: M_0,0 + M_12,0 + M_16,0 + M_18,0 + M_19,0 + M_2,0 + M_20,0 + M_23,0
 + 7 M_24,0 + 7 M_24,3 + 7 M_24,4 + M_27,0 + M_4,0 + M_5,0 + M_7,0 >= 7
STAB_24_3: M_10,3 + M_12,3 + M_17,3 + M_19,3 + M_2,3 + M_20,3 + M_22,3
 + M_23,3 + M_24,3 + M_28,3 + M_29,3 + M_4,3 + M_6,3 + M_8,3 + M_9,3 >= 1
STAB_24_4: M_1,4 + M_11,4 + M_12,4 + M_13,4 + M_15,4 + 8 M_24,3 + 8 M_24,4
 + M_25,4 + M_3,4 + M_6,4 + M_9,4 >= 8
STAB_25_0: M_0,0 + M_10,0 + M_12,0 + M_13,0 + M_16,0 + M_17,0 + M_18,0
 + M_19,0 + M_2,0 + M_20,0 + M_22,0 + M_23,0 + M_24,0 + 7 M_25,0 + 7 M_25,2
 + M_27,0 + M_29,0 + M_4,0 + M_5,0 + M_7,0 + M_8,0 >= 7
STAB_25_2: M_0,2 + M_12,2 + M_20,2 + 7 M_25,2 + M_7,2 >= 7
STAB_25_4: M_1,4 + M_11,4 + M_12,4 + M_13,4 + M_15,4 + M_24,4 + 8 M_25,0
 + 8 M_25,2 + 8 M_25,4 + M_3,4 + M_6,4 + M_9,4 >= 8
STAB_26_1: M_1,1 + M_23,1 + 8 M_26,1 >= 8
STAB_26_2: M_0,2 + M_12,2 + M_20,2 + M_23,2 + M_25,2 + 7 M_26,1 + 7 M_26,2
 + M_29,2 + M_7,2 >= 7
STAB_27_0: M_0,0 + M_12,0 + M_16,0 + M_18,0 + M_19,0 + M_2,0 + M_20,0 + M_23,0
 + M_24,0 + 7 M_27,0 + M_4,0 + M_5,0 + M_7,0 >= 7
STAB_28_1: M_1,1 + M_10,1 + M_20,1 + M_23,1 + M_26,1 + 8 M_28,1 + M_5,1 >= 8
STAB_28_3: M_10,3 + M_19,3 + M_23,3 + M_28,1 + M_28,3 + M_8,3 + M_9,3 >= 1
STAB_28_4: M_0,4 + M_1,4 + M_11,4 + M_12,4 + M_13,4 + M_14,4 + M_15,4 + M_18,4
 + M_20,4 + M_23,4 + M_24,4 + M_25,4 + 8 M_28,1 + 8 M_28,3 + 8 M_28,4 + M_3,4
 + M_5,4 + M_6,4 + M_9,4 >= 8
STAB_29_0: M_0,0 + M_10,0 + M_12,0 + M_13,0 + M_16,0 + M_17,0 + M_18,0
 + M_19,0 + M_2,0 + M_20,0 + M_22,0 + M_23,0 + M_24,0 + M_25,0 + M_27,0
 + 7 M_29,0 + M_4,0 + M_5,0 + M_7,0 + M_8,0 >= 7
STAB_29_2: M_0,2 + M_12,2 + M_20,2 + M_23,2 + M_25,2 + M_26,2 + 7 M_29,0
 + 7 M_29,2 + M_7,2 >= 7
STAB_29_3: M_10,3 + M_12,3 + M_17,3 + M_19,3 + M_2,3 + M_20,3 + M_22,3
 + M_23,3 + M_24,3 + M_28,3 + M_29,0 + M_29,2 + M_29,3 + M_4,3 + M_6,3 + M_8,3
 + M_9,3 >= 1
STAB_2_0: M_0,0 + M_12,0 + 7 M_2,0 + 7 M_2,3 + M_23,0 + M_5,0 + M_7,0 >= 7
STAB_2_3: M_10,3 + M_12,3 + M_17,3 + M_19,3 + M_2,3 + M_20,3 + M_22,3 + M_23,3
 + M_24,3 + M_28,3 + M_29,3 + M_4,3 + M_6,3 + M_8,3 + M_9,3 >= 1
STAB_3_2: M_0,2 + M_1,2 + M_12,2 + M_13,2 + M_19,2 + M_20,2 + M_21,2 + M_23,2
 + M_25,2 + M_26,2 + M_29,2 + 7 M_3,2 + 7 M_3,4 + M_6,2 + M_7,2 >= 7
STAB_3_4: M_1,4 + M_11,4 + M_12,4 + M_13,4 + M_15,4 + M_24,4 + M_25,4
 + 8 M_3,4 + M_6,4 + M_9,4 >= 8
STAB_4_0: M_0,0 + M_12,0 + M_16,0 + M_18,0 + M_19,0 + M_2,0 + M_20,0 + M_23,0
 + M_24,0 + M_27,0 + 7 M_4,0 + 7 M_4,3 + M_5,0 + M_7,0 >= 7
STAB_4_3: M_10,3 + M_12,3 + M_17,3 + M_19,3 + M_2,3 + M_20,3 + M_22,3 + M_23,3
 + M_24,3 + M_28,3 + M_29,3 + M_4,3 + M_6,3 + M_8,3 + M_9,3 >= 1
STAB_5_0: M_0,0 + M_12,0 + M_2,0 + M_23,0 + 7 M_5,0 + 7 M_5,4 + M_7,0 >= 7
STAB_5_1: M_1,1 + M_10,1 + M_20,1 + M_23,1 + M_26,1 + M_28,1 + 8 M_5,0
 + 8 M_5,1 + 8 M_5,4 >= 8
STAB_5_4: M_0,4 + M_1,4 + M_11,4 + M_12,4 + M_13,4 + M_14,4 + M_15,4 + M_18,4
 + M_20,4 + M_23,4 + M_24,4 + M_25,4 + M_28,4 + M_3,4 + 8 M_5,4 + M_6,4
 + M_9,4 >= 8
STAB_6_2: M_0,2 + M_1,2 + M_12,2 + M_13,2 + M_19,2 + M_20,2 + M_21,2 + M_23,2
 + M_25,2 + M_26,2 + M_29,2 + M_3,2 + 7 M_6,2 + 7 M_6,3 + 7 M_6,4 + M_7,2 >= 7
STAB_6_3: M_10,3 + M_12,3 + M_17,3 + M_19,3 + M_2,3 + M_20,3 + M_22,3 + M_23,3
 + M_24,3 + M_28,3 + M_29,3 + M_4,3 + M_6,3 + M_6,4 + M_8,3 + M_9,3 >= 1
STAB_6_4: M_11,4 + M_12,4 + M_15,4 + 8 M_6,4 >= 8
STAB_7_0: M_0,0 + M_12,0 + M_2,0 + M_23,0 + M_5,0 + 7 M_7,0 + 7 M_7,2 >= 7
STAB_7_2: M_0,2 + M_12,2 + M_20,2 + M_25,2 + 7 M_7,2 >= 7
STAB_8_0: M_0,0 + M_10,0 + M_12,0 + M_13,0 + M_16,0 + M_17,0 + M_18,0 + M_19,0
 + M_2,0 + M_20,0 + M_22,0 + M_23,0 + M_24,0 + M_25,0 + M_27,0 + M_29,0
 + M_4,0 + M_5,0 + M_7,0 + 7 M_8,0 >= 7
STAB_8_3: M_10,3 + M_19,3 + M_23,3 + M_28,3 + M_8,0 + M_8,3 + M_9,3 >= 1
STAB_9_3: M_10,3 + M_19,3 + M_23,3 + M_28,3 + M_8,3 + M_9,3 >= 1
STAB_9_4: M_1,4 + M_11,4 + M_12,4 + M_13,4 + M_15,4 + M_24,4 + M_25,4 + M_3,4
 + M_6,4 + 8 M_9,3 + 8 M_9,4 >= 8
Bounds
 __dummy = 0
Binaries
M_0,0
M_0,2
M_0,4
M_1,1
M_1,2
M_1,4
M_10,0
M_10,1
M_10,3
M_11,3
M_11,4
M_12,0
M_12,2
M_12,3
M_12,4
M_13,0
M_13,2
M_13,3
M_13,4
M_14,4
M_15,4
M_16,0
M_16,3
M_17,0
M_17,3
M_18,0
M_18,3
M_18,4
M_19,0
M_19,2
M_19,3
M_2,0
M_2,3
M_20,0
M_20,1
M_20,2
M_20,3
M_20,4
M_21,2
M_22,0
M_22,3
M_23,0
M_23,1
M_23,2
M_23,3
M_23,4
M_24,0
M_24,3
M_24,4
M_25,0
M_25,2
M_25,4
M_26,1
M_26,2
M_27,0
M_28,1
M_28,3
M_28,4
M_29,0
M_29,2
M_29,3
M_3,2
M_3,4
M_4,0
M_4,3
M_5,0
M_5,1
M_5,4
M_6,2
M_6,3
M_6,4
M_7,0
M_7,2
M_8,0
M_8,3
M_9,3
M_9,4
End
